0 1664 
1 1660 
2 1640 
3 1632 
4 1630 
5 1626 
6 1586 
7 1578 
8 1570 
9 1560 
10 1556 
11 1552 
12 1550 
13 1546 
14 1538 
15 1528 
16 1524 
17 1520 
18 1514 
19 1512 
20 1510 
21 1504 
22 1490 
23 1486 
24 1480 
25 1480 
26 1468 
27 1456 
28 1452 
29 1440 
30 1436 
31 1430 
32 1422 
33 1416 
34 1408 
35 1406 
36 1404 
37 1404 
38 1404 
39 1372 
40 1372 
41 1364 
42 1354 
43 1334 
44 1322 
45 1318 
46 1318 
47 1314 
48 1302 
49 1298 
50 1298 
51 1298 
52 1294 
53 1294 
54 1294 
55 1294 
56 1294 
57 1294 
58 1294 
59 1294 
60 1294 
61 1294 
62 1294 
63 1294 
64 1294 
65 1294 
66 1294 
67 1294 
68 1294 
69 1294 
70 1294 
71 1294 
72 1294 
73 1294 
74 1294 
75 1294 
76 1294 
77 1294 
78 1294 
79 1294 
80 1294 
81 1294 
82 1294 
83 1294 
84 1294 
85 1294 
86 1294 
87 1294 
88 1294 
89 1294 
90 1294 
91 1294 
92 1294 
93 1294 
94 1294 
95 1294 
96 1294 
97 1294 
98 1294 
99 1294 
100 1294 
101 1294 
102 1294 
103 1294 
104 1294 
105 1294 
106 1294 
107 1294 
108 1294 
109 1294 
110 1294 
111 1294 
112 1294 
113 1294 
114 1294 
115 1294 
116 1294 
117 1294 
118 1294 
119 1294 
120 1294 
121 1294 
122 1294 
123 1294 
124 1294 
125 1294 
126 1294 
127 1294 
128 1294 
129 1294 
130 1294 
131 1294 
132 1294 
133 1294 
134 1294 
135 1294 
136 1294 
137 1294 
138 1294 
139 1294 
140 1294 
141 1294 
142 1294 
143 1294 
144 1294 
145 1294 
146 1294 
147 1294 
148 1294 
149 1294 
150 1294 
151 1294 
152 1294 
153 1294 
154 1294 
155 1294 
156 1294 
157 1294 
158 1294 
159 1294 
160 1294 
161 1294 
162 1294 
163 1294 
164 1294 
165 1294 
166 1294 
167 1294 
168 1294 
169 1294 
170 1294 
171 1294 
172 1294 
173 1294 
174 1294 
175 1294 
176 1294 
177 1294 
178 1294 
179 1294 
180 1294 
181 1294 
182 1294 
183 1294 
184 1294 
185 1294 
186 1294 
187 1294 
188 1294 
189 1294 
190 1294 
191 1294 
192 1294 
193 1294 
194 1294 
195 1294 
196 1294 
197 1294 
198 1294 
199 1294 
200 1294 
201 1294 
202 1294 
203 1294 
204 1294 
205 1294 
206 1294 
207 1294 
208 1294 
209 1294 
210 1294 
211 1294 
212 1294 
213 1294 
214 1294 
215 1294 
216 1294 
217 1294 
218 1294 
219 1294 
220 1294 
221 1294 
222 1294 
223 1294 
224 1294 
225 1294 
226 1294 
227 1294 
228 1294 
229 1294 
230 1294 
231 1294 
232 1294 
233 1294 
234 1294 
235 1294 
236 1294 
237 1294 
238 1294 
239 1294 
240 1294 
241 1294 
242 1294 
243 1294 
244 1294 
245 1294 
246 1294 
247 1294 
248 1294 
249 1294 
250 1294 
251 1294 
252 1294 
253 1294 
254 1294 
255 1294 
256 1294 
257 1294 
258 1294 
259 1294 
260 1294 
261 1294 
262 1294 
263 1294 
264 1294 
265 1294 
266 1294 
267 1294 
268 1294 
269 1294 
270 1294 
271 1294 
272 1294 
273 1294 
274 1294 
275 1294 
276 1294 
277 1294 
278 1294 
279 1294 
280 1294 
281 1294 
282 1294 
283 1294 
284 1294 
285 1294 
286 1294 
287 1294 
288 1294 
289 1294 
290 1294 
291 1294 
292 1294 
293 1294 
294 1294 
295 1294 
296 1294 
297 1294 
298 1294 
299 1294 
300 1294 
301 1294 
302 1294 
303 1294 
304 1294 
305 1294 
306 1294 
307 1294 
308 1294 
309 1294 
310 1294 
311 1294 
312 1294 
313 1294 
314 1294 
315 1294 
316 1294 
317 1294 
318 1294 
319 1294 
320 1294 
321 1294 
322 1294 
323 1294 
324 1294 
325 1294 
326 1294 
327 1294 
328 1294 
329 1294 
330 1294 
331 1294 
332 1294 
333 1294 
334 1294 
335 1294 
336 1294 
337 1294 
338 1294 
339 1294 
340 1294 
341 1294 
342 1294 
343 1294 
344 1294 
345 1294 
346 1294 
347 1294 
348 1294 
349 1294 
350 1294 
351 1294 
352 1294 
353 1294 
354 1294 
355 1294 
356 1294 
357 1294 
358 1294 
359 1294 
360 1294 
361 1294 
362 1294 
363 1294 
364 1294 
365 1294 
366 1294 
367 1294 
368 1294 
369 1294 
370 1294 
371 1294 
372 1294 
373 1294 
374 1294 
375 1294 
376 1294 
377 1294 
378 1294 
379 1294 
380 1294 
381 1294 
382 1294 
383 1294 
384 1294 
385 1294 
386 1294 
387 1294 
388 1294 
389 1294 
390 1294 
391 1294 
392 1294 
393 1294 
394 1294 
395 1294 
396 1294 
397 1294 
398 1294 
399 1294 
400 1294 
401 1294 
402 1294 
403 1294 
404 1294 
405 1294 
406 1294 
407 1294 
408 1294 
409 1294 
410 1294 
411 1294 
412 1294 
413 1294 
414 1294 
415 1294 
416 1294 
417 1294 
418 1294 
419 1294 
420 1294 
421 1294 
422 1294 
423 1294 
424 1294 
425 1294 
426 1294 
427 1294 
428 1294 
429 1294 
430 1294 
431 1294 
432 1294 
433 1294 
434 1294 
435 1294 
436 1294 
437 1294 
438 1294 
439 1294 
440 1294 
441 1294 
442 1294 
443 1294 
444 1294 
445 1294 
446 1294 
447 1294 
448 1294 
449 1294 
450 1294 
451 1294 
452 1294 
453 1294 
454 1294 
455 1294 
456 1294 
457 1294 
458 1294 
459 1294 
460 1294 
461 1294 
462 1294 
463 1294 
464 1294 
465 1294 
466 1294 
467 1294 
468 1294 
469 1294 
470 1294 
471 1294 
472 1294 
473 1294 
474 1294 
475 1294 
476 1294 
477 1294 
478 1294 
479 1294 
480 1294 
481 1294 
482 1294 
483 1294 
484 1294 
485 1294 
486 1294 
487 1294 
488 1294 
489 1294 
490 1294 
491 1294 
492 1294 
493 1294 
494 1294 
495 1294 
496 1294 
497 1294 
498 1294 
499 1294 
500 1294 
501 1294 
502 1294 
503 1294 
504 1294 
505 1294 
506 1294 
507 1294 
508 1294 
509 1294 
510 1294 
511 1294 
512 1294 
513 1294 
514 1294 
515 1294 
516 1294 
517 1294 
518 1294 
519 1294 
520 1294 
521 1294 
522 1294 
523 1294 
524 1294 
525 1294 
526 1294 
527 1294 
528 1294 
529 1294 
530 1294 
531 1294 
532 1294 
533 1294 
534 1294 
535 1294 
536 1294 
537 1294 
538 1294 
539 1294 
540 1294 
541 1294 
542 1294 
543 1294 
544 1294 
545 1294 
546 1294 
547 1294 
548 1294 
549 1294 
550 1294 
551 1294 
552 1294 
553 1294 
554 1294 
555 1294 
556 1294 
557 1294 
558 1294 
559 1294 
560 1294 
561 1294 
562 1294 
563 1294 
564 1294 
565 1294 
566 1294 
567 1294 
568 1294 
569 1294 
570 1294 
571 1294 
572 1294 
573 1294 
574 1294 
575 1294 
576 1294 
577 1294 
578 1294 
579 1294 
580 1294 
581 1294 
582 1294 
583 1294 
584 1294 
585 1294 
586 1294 
587 1294 
588 1294 
589 1294 
590 1294 
591 1294 
592 1294 
593 1294 
594 1294 
595 1294 
596 1294 
597 1294 
598 1294 
599 1294 
600 1294 
601 1294 
602 1294 
603 1294 
604 1294 
605 1294 
606 1294 
607 1294 
608 1294 
609 1294 
610 1294 
611 1294 
612 1294 
613 1294 
614 1294 
615 1294 
616 1294 
617 1294 
618 1294 
619 1294 
620 1294 
621 1294 
622 1294 
623 1294 
624 1294 
625 1294 
626 1294 
627 1294 
628 1294 
629 1294 
630 1294 
631 1294 
632 1294 
633 1294 
634 1294 
635 1294 
636 1294 
637 1294 
638 1294 
639 1294 
640 1294 
641 1294 
642 1294 
643 1294 
644 1294 
645 1294 
646 1294 
647 1294 
648 1294 
649 1294 
650 1294 
651 1294 
652 1294 
653 1294 
654 1294 
655 1294 
656 1294 
657 1294 
658 1294 
659 1294 
660 1294 
661 1294 
662 1294 
663 1294 
664 1294 
665 1294 
666 1294 
667 1294 
668 1294 
669 1294 
670 1294 
671 1294 
672 1294 
673 1294 
674 1294 
675 1294 
676 1294 
677 1294 
678 1294 
679 1294 
680 1294 
681 1294 
682 1294 
683 1294 
684 1294 
685 1294 
686 1294 
687 1294 
688 1294 
689 1294 
690 1294 
691 1294 
692 1294 
693 1294 
694 1294 
695 1294 
696 1294 
697 1294 
698 1294 
699 1294 
700 1294 
701 1294 
702 1294 
703 1294 
704 1294 
705 1294 
706 1294 
707 1294 
708 1294 
709 1294 
710 1294 
711 1294 
712 1294 
713 1294 
714 1294 
715 1294 
716 1294 
717 1294 
718 1294 
719 1294 
720 1294 
721 1294 
722 1294 
723 1294 
724 1294 
725 1294 
726 1294 
727 1294 
728 1294 
729 1294 
730 1294 
731 1294 
732 1294 
733 1294 
734 1294 
735 1294 
736 1294 
737 1294 
738 1294 
739 1294 
740 1294 
741 1294 
742 1294 
743 1294 
744 1294 
745 1294 
746 1294 
747 1294 
748 1294 
749 1294 
750 1294 
751 1294 
752 1294 
753 1294 
754 1294 
755 1294 
756 1294 
757 1294 
758 1294 
759 1294 
760 1294 
761 1294 
762 1294 
763 1294 
764 1294 
765 1294 
766 1294 
767 1294 
768 1294 
769 1294 
770 1294 
771 1294 
772 1294 
773 1294 
774 1294 
775 1294 
776 1294 
777 1294 
778 1294 
779 1294 
780 1294 
781 1294 
782 1294 
783 1294 
784 1294 
785 1294 
786 1294 
787 1294 
788 1294 
789 1294 
790 1294 
791 1294 
792 1294 
793 1294 
794 1294 
795 1294 
796 1294 
797 1294 
798 1294 
799 1294 
800 1294 
801 1294 
802 1294 
803 1294 
804 1294 
805 1294 
806 1294 
807 1294 
808 1294 
809 1294 
810 1294 
811 1294 
812 1294 
813 1294 
814 1294 
815 1294 
816 1294 
817 1294 
818 1294 
819 1294 
820 1294 
821 1294 
822 1294 
823 1294 
824 1294 
825 1294 
826 1294 
827 1294 
828 1294 
829 1294 
830 1294 
831 1294 
832 1294 
833 1294 
834 1294 
835 1294 
836 1294 
837 1294 
838 1294 
839 1294 
840 1294 
841 1294 
842 1294 
843 1294 
844 1294 
845 1294 
846 1294 
847 1294 
848 1294 
849 1294 
850 1294 
851 1294 
852 1294 
853 1294 
854 1294 
855 1294 
856 1294 
857 1294 
858 1294 
859 1294 
860 1294 
861 1294 
862 1294 
863 1294 
864 1294 
865 1294 
866 1294 
867 1294 
868 1294 
869 1294 
870 1294 
871 1294 
872 1294 
873 1294 
874 1294 
875 1294 
876 1294 
877 1294 
878 1294 
879 1294 
880 1294 
881 1294 
882 1294 
883 1294 
884 1294 
885 1294 
886 1294 
887 1294 
888 1294 
889 1294 
890 1294 
891 1294 
892 1294 
893 1294 
894 1294 
895 1294 
896 1294 
897 1294 
898 1294 
899 1294 
900 1294 
901 1294 
902 1294 
903 1294 
904 1294 
905 1294 
906 1294 
907 1294 
908 1294 
909 1294 
910 1294 
911 1294 
912 1294 
913 1294 
914 1294 
915 1294 
916 1294 
917 1294 
918 1294 
919 1294 
920 1294 
921 1294 
922 1294 
923 1294 
924 1294 
925 1294 
926 1294 
927 1294 
928 1294 
929 1294 
930 1294 
931 1294 
932 1294 
933 1294 
934 1294 
935 1294 
936 1294 
937 1294 
938 1294 
939 1294 
940 1294 
941 1294 
942 1294 
943 1294 
944 1294 
945 1294 
946 1294 
947 1294 
948 1294 
949 1294 
950 1294 
951 1294 
952 1294 
953 1294 
954 1294 
955 1294 
956 1294 
957 1294 
958 1294 
959 1294 
960 1294 
961 1294 
962 1294 
963 1294 
964 1294 
965 1294 
966 1294 
967 1294 
968 1294 
969 1294 
970 1294 
971 1294 
972 1294 
973 1294 
974 1294 
975 1294 
976 1294 
977 1294 
978 1294 
979 1294 
980 1294 
981 1294 
982 1294 
983 1294 
984 1294 
985 1294 
986 1294 
987 1294 
988 1294 
989 1294 
990 1294 
991 1294 
992 1294 
993 1294 
994 1294 
995 1294 
996 1294 
997 1294 
998 1294 
999 1294 
1000 1294 
1001 1294 
1002 1294 
1003 1294 
1004 1294 
1005 1294 
1006 1294 
1007 1294 
1008 1294 
1009 1294 
1010 1294 
1011 1294 
1012 1294 
1013 1294 
1014 1294 
1015 1294 
1016 1294 
1017 1294 
1018 1294 
1019 1294 
1020 1294 
1021 1294 
1022 1294 
1023 1294 
1024 1294 
1025 1294 
1026 1294 
1027 1294 
1028 1294 
1029 1294 
1030 1294 
1031 1294 
1032 1294 
1033 1294 
1034 1294 
1035 1294 
1036 1294 
1037 1294 
1038 1294 
1039 1294 
1040 1294 
1041 1294 
1042 1294 
1043 1294 
1044 1294 
1045 1294 
1046 1294 
1047 1294 
1048 1294 
1049 1294 
1050 1294 
1051 1294 
1052 1294 
1053 1294 
1054 1294 
1055 1294 
1056 1294 
1057 1294 
1058 1294 
1059 1294 
1060 1294 
1061 1294 
1062 1294 
1063 1294 
1064 1294 
1065 1294 
1066 1294 
1067 1294 
1068 1294 
1069 1294 
1070 1294 
1071 1294 
1072 1294 
1073 1294 
1074 1294 
1075 1294 
1076 1294 
1077 1294 
1078 1294 
1079 1294 
1080 1294 
1081 1294 
1082 1294 
1083 1294 
1084 1294 
1085 1294 
1086 1294 
1087 1294 
1088 1294 
1089 1294 
1090 1294 
1091 1294 
1092 1294 
1093 1294 
1094 1294 
1095 1294 
1096 1294 
1097 1294 
1098 1294 
1099 1294 
1100 1294 
1101 1294 
1102 1294 
1103 1294 
1104 1294 
1105 1294 
1106 1294 
1107 1294 
1108 1294 
1109 1294 
1110 1294 
1111 1294 
1112 1294 
1113 1294 
1114 1294 
1115 1294 
1116 1294 
1117 1294 
1118 1294 
1119 1294 
1120 1294 
1121 1294 
1122 1294 
1123 1294 
1124 1294 
1125 1294 
1126 1294 
1127 1294 
1128 1294 
1129 1294 
1130 1294 
1131 1294 
1132 1294 
1133 1294 
1134 1294 
1135 1294 
1136 1294 
1137 1294 
1138 1294 
1139 1294 
1140 1294 
1141 1294 
1142 1294 
1143 1294 
1144 1294 
1145 1294 
1146 1294 
1147 1294 
1148 1294 
1149 1294 
1150 1294 
1151 1294 
1152 1294 
1153 1294 
1154 1294 
1155 1294 
1156 1294 
1157 1294 
1158 1294 
1159 1294 
1160 1294 
1161 1294 
1162 1294 
1163 1294 
1164 1294 
1165 1294 
1166 1294 
1167 1294 
1168 1294 
1169 1294 
1170 1294 
1171 1294 
1172 1294 
1173 1294 
1174 1294 
1175 1294 
1176 1294 
1177 1294 
1178 1294 
1179 1294 
1180 1294 
1181 1294 
1182 1294 
1183 1294 
1184 1294 
1185 1294 
1186 1294 
1187 1294 
1188 1294 
1189 1294 
1190 1294 
1191 1294 
1192 1294 
1193 1294 
1194 1294 
1195 1294 
1196 1294 
1197 1294 
1198 1294 
1199 1294 
1200 1294 
1201 1294 
1202 1294 
1203 1294 
1204 1294 
1205 1294 
1206 1294 
1207 1294 
1208 1294 
1209 1294 
1210 1294 
1211 1294 
1212 1294 
1213 1294 
1214 1294 
1215 1294 
1216 1294 
1217 1294 
1218 1294 
1219 1294 
1220 1294 
1221 1294 
1222 1294 
1223 1294 
1224 1294 
1225 1294 
1226 1294 
1227 1294 
1228 1294 
1229 1294 
1230 1294 
1231 1294 
1232 1294 
1233 1294 
1234 1294 
1235 1294 
1236 1294 
1237 1294 
1238 1294 
1239 1294 
1240 1294 
1241 1294 
1242 1294 
1243 1294 
1244 1294 
1245 1294 
1246 1294 
1247 1294 
1248 1294 
1249 1294 
1250 1294 
1251 1294 
1252 1294 
1253 1294 
1254 1294 
1255 1294 
1256 1294 
1257 1294 
1258 1294 
1259 1294 
1260 1294 
1261 1294 
1262 1294 
1263 1294 
1264 1294 
1265 1294 
1266 1294 
1267 1294 
1268 1294 
1269 1294 
1270 1294 
1271 1294 
1272 1294 
1273 1294 
1274 1294 
1275 1294 
1276 1294 
1277 1294 
1278 1294 
1279 1294 
1280 1294 
1281 1294 
1282 1294 
1283 1294 
1284 1294 
1285 1294 
1286 1294 
1287 1294 
1288 1294 
1289 1294 
1290 1294 
1291 1294 
1292 1294 
1293 1294 
1294 1294 
1295 1294 
1296 1294 
1297 1294 
1298 1294 
1299 1294 
1300 1294 
1301 1294 
1302 1294 
1303 1294 
1304 1294 
1305 1294 
1306 1294 
1307 1294 
1308 1294 
1309 1294 
1310 1294 
1311 1294 
1312 1294 
1313 1294 
1314 1294 
1315 1294 
1316 1294 
1317 1294 
1318 1294 
1319 1294 
1320 1294 
1321 1294 
1322 1294 
1323 1294 
1324 1294 
1325 1294 
1326 1294 
1327 1294 
1328 1294 
1329 1294 
1330 1294 
1331 1294 
1332 1294 
1333 1294 
1334 1294 
1335 1294 
1336 1294 
1337 1294 
1338 1294 
1339 1294 
1340 1294 
1341 1294 
1342 1294 
1343 1294 
1344 1294 
1345 1294 
1346 1294 
1347 1294 
1348 1294 
1349 1294 
1350 1294 
1351 1294 
1352 1294 
1353 1294 
1354 1294 
1355 1294 
1356 1294 
1357 1294 
1358 1294 
1359 1294 
1360 1294 
1361 1294 
1362 1294 
1363 1294 
1364 1294 
1365 1294 
1366 1294 
1367 1294 
1368 1294 
1369 1294 
1370 1294 
1371 1294 
1372 1294 
1373 1294 
1374 1294 
1375 1294 
1376 1294 
1377 1294 
1378 1294 
1379 1294 
1380 1294 
1381 1294 
1382 1294 
1383 1294 
1384 1294 
1385 1294 
1386 1294 
1387 1294 
1388 1294 
1389 1294 
1390 1294 
1391 1294 
1392 1294 
1393 1294 
1394 1294 
1395 1294 
1396 1294 
1397 1294 
1398 1294 
1399 1294 
1400 1294 
1401 1294 
1402 1294 
1403 1294 
1404 1294 
1405 1294 
1406 1294 
1407 1294 
1408 1294 
1409 1294 
1410 1294 
1411 1294 
1412 1294 
1413 1294 
1414 1294 
1415 1294 
1416 1294 
1417 1294 
1418 1294 
1419 1294 
1420 1294 
1421 1294 
1422 1294 
1423 1294 
1424 1294 
1425 1294 
1426 1294 
1427 1294 
1428 1294 
1429 1294 
1430 1294 
1431 1294 
1432 1294 
1433 1294 
1434 1294 
1435 1294 
1436 1294 
1437 1294 
1438 1294 
1439 1294 
1440 1294 
1441 1294 
1442 1294 
1443 1294 
1444 1294 
1445 1294 
1446 1294 
1447 1294 
1448 1294 
1449 1294 
1450 1294 
1451 1294 
1452 1294 
1453 1294 
1454 1294 
1455 1294 
1456 1294 
1457 1294 
1458 1294 
1459 1294 
1460 1294 
1461 1294 
1462 1294 
1463 1294 
1464 1294 
1465 1294 
1466 1294 
1467 1294 
1468 1294 
1469 1294 
1470 1294 
1471 1294 
1472 1294 
1473 1294 
1474 1294 
1475 1294 
1476 1294 
1477 1294 
1478 1294 
1479 1294 
1480 1294 
1481 1294 
1482 1294 
1483 1294 
1484 1294 
1485 1294 
1486 1294 
1487 1294 
1488 1294 
1489 1294 
1490 1294 
1491 1294 
1492 1294 
1493 1294 
1494 1294 
1495 1294 
1496 1294 
1497 1294 
1498 1294 
1499 1294 
1500 1294 
1501 1294 
1502 1294 
1503 1294 
1504 1294 
1505 1294 
1506 1294 
1507 1294 
1508 1294 
1509 1294 
1510 1294 
1511 1294 
1512 1294 
1513 1294 
1514 1294 
1515 1294 
1516 1294 
1517 1294 
1518 1294 
1519 1294 
1520 1294 
1521 1294 
1522 1294 
1523 1294 
1524 1294 
1525 1294 
1526 1294 
1527 1294 
1528 1294 
1529 1294 
1530 1294 
1531 1294 
1532 1294 
1533 1294 
1534 1294 
1535 1294 
1536 1294 
1537 1294 
1538 1294 
1539 1294 
1540 1294 
1541 1294 
1542 1294 
1543 1294 
1544 1294 
1545 1294 
1546 1294 
1547 1294 
1548 1294 
1549 1294 
1550 1294 
1551 1294 
1552 1294 
1553 1294 
1554 1294 
1555 1294 
1556 1294 
1557 1294 
1558 1294 
1559 1294 
1560 1294 
1561 1294 
1562 1294 
1563 1294 
1564 1294 
1565 1294 
1566 1294 
1567 1294 
1568 1294 
1569 1294 
1570 1294 
1571 1294 
1572 1294 
1573 1294 
1574 1294 
1575 1294 
1576 1294 
1577 1294 
1578 1294 
1579 1294 
1580 1294 
1581 1294 
1582 1294 
1583 1294 
1584 1294 
1585 1294 
1586 1294 
1587 1294 
1588 1294 
1589 1294 
1590 1294 
1591 1294 
1592 1294 
1593 1294 
1594 1294 
1595 1294 
1596 1294 
1597 1294 
1598 1294 
1599 1294 
1600 1294 
1601 1294 
1602 1294 
1603 1294 
1604 1294 
1605 1294 
1606 1294 
1607 1294 
1608 1294 
1609 1294 
1610 1294 
1611 1294 
1612 1294 
1613 1294 
1614 1294 
1615 1294 
1616 1294 
1617 1294 
1618 1294 
1619 1294 
1620 1294 
1621 1294 
1622 1294 
1623 1294 
1624 1294 
1625 1294 
1626 1294 
1627 1294 
1628 1294 
1629 1294 
1630 1294 
1631 1294 
1632 1294 
1633 1294 
1634 1294 
1635 1294 
1636 1294 
1637 1294 
1638 1294 
1639 1294 
1640 1294 
1641 1294 
1642 1294 
1643 1294 
1644 1294 
1645 1294 
1646 1294 
1647 1294 
1648 1294 
1649 1294 
1650 1294 
1651 1294 
1652 1294 

